1	1	1	1	4	5	0	0	0	0	0	0
2000	1	0	0	0	0	0	0	0	0	0	0
250	1	0	60.63	0.49	1	0	0	0	0	0	0
50	150	0	0	0	0	9999	0	0	99999	0	0
50	75	0	0	0	0	9999	0	0	99999	0	0
50	75	0	0	0	0	9999	0	0	0	0	0
21	22	0	0	0	0	9999	0	0	0	0	0
34	16	0	0	0	0	9999	0	0	0	0	0
35      35      0       0       0       0       9999    0       0       0       0       0
53	43	14	11	3	202	340	10	0	0	0	0
5	30	2	0	2	116	1075	10	0	0	0	0
20	20	8	8	0	116	1084	10	0	0	0	0
20	40	12	6	6	519	629	10	0	0	0	0
47	16	25	9	16	220	368	10	0	0	0	0

